
Gurobi 11.0.3 (linux64) logging started Fri Nov 22 17:29:01 2024

Set parameter LogFile to value "/home/yihong/Coding/OR_SUC/SUC_results_bigM100000_thread4/case24_ieee_rts_theta0.5_epsilon0.025_gurobi_seed860000_num_gen100_N_WDR100_load_scaling_factor1_exact_T24quadra_cost.txt"
Set parameter TimeLimit to value 3600
Gurobi Optimizer version 11.0.3 build v11.0.3rc0 (linux64 - "Ubuntu 20.04.6 LTS")

CPU model: AMD EPYC 7532 32-Core Processor, instruction set [SSE2|AVX|AVX2]
Thread count: 64 physical cores, 128 logical processors, using up to 4 threads

Optimize a model with 52043 rows, 29961 columns and 712938 nonzeros
Model fingerprint: 0x0dbad739
Model has 2400 quadratic constraints
Variable types: 27461 continuous, 2500 integer (2500 binary)
Coefficient statistics:
  Matrix range     [3e-04, 1e+05]
  QMatrix range    [2e-03, 8e-03]
  QLMatrix range   [9e-02, 6e+01]
  Objective range  [1e+00, 1e+00]
  Bounds range     [1e+00, 1e+00]
  RHS range        [1e+00, 1e+05]
Presolve removed 42129 rows and 12958 columns
Presolve time: 0.25s
Presolved: 9914 rows, 17003 columns, 63172 nonzeros
Presolved model has 2400 quadratic constraint(s)
Variable types: 14546 continuous, 2457 integer (2457 binary)

Root relaxation: objective 7.282693e+04, 8803 iterations, 0.21 seconds (0.30 work units)

    Nodes    |    Current Node    |     Objective Bounds      |     Work
 Expl Unexpl |  Obj  Depth IntInf | Incumbent    BestBd   Gap | It/Node Time

     0     0 72826.9316    0    4          - 72826.9316      -     -    0s
H    0     0                    790307.15554 383346.340  51.5%     -    0s
     0     0 383346.340    0  670 790307.156 383346.340  51.5%     -    1s
     0     0 428171.257    0  660 790307.156 428171.257  45.8%     -    1s
     0     0 675634.434    0  189 790307.156 675634.434  14.5%     -    1s
     0     0 676049.234    0   44 790307.156 676049.234  14.5%     -    1s
     0     0 676273.360    0   44 790307.156 676273.360  14.4%     -    1s
     0     0 676274.497    0   43 790307.156 676274.497  14.4%     -    1s
     0     0 676453.054    0   33 790307.156 676453.054  14.4%     -    1s
     0     0 676453.313    0   33 790307.156 676453.313  14.4%     -    1s
     0     0 676622.375    0   32 790307.156 676622.375  14.4%     -    2s
     0     0 676622.919    0   31 790307.156 676622.919  14.4%     -    2s
     0     2 676622.919    0   31 790307.156 676622.919  14.4%     -    2s
   103   105 676779.497   26   10 790307.156 676686.243  14.4%  38.3    5s
H  117   122                    676803.83346 676686.243  0.02%  36.5    5s
*  117   122              31    676803.83346 676686.243  0.02%  36.9    5s

Cutting planes:
  Gomory: 24
  Implied bound: 216
  MIR: 42
  Flow cover: 104
  RLT: 3

Explored 132 nodes (27483 simplex iterations) in 6.24 seconds (7.15 work units)
Thread count was 4 (of 128 available processors)

Solution count 3: 676804 676804 790307 

Optimal solution found (tolerance 1.00e-03)
Warning: max constraint violation (4.5334e-08) exceeds tolerance
Best objective 6.768038334558e+05, best bound 6.766862433649e+05, gap 0.0174%
